p wcnf 167 197 198 
1 -36 -92 0 
1 86 156 0 
1 -36 -155 0 
1 -20 41 0 
1 -63 167 0 
1 -115 -81 0 
1 151 -164 0 
1 28 139 0 
1 -166 -140 0 
1 -17 -65 0 
1 -38 -128 0 
1 -146 -28 0 
1 -120 14 0 
1 -30 160 0 
1 -85 -21 0 
1 -6 -15 0 
1 72 163 0 
1 -45 154 0 
1 -71 94 0 
1 -11 163 0 
1 138 84 0 
1 -74 -93 0 
1 97 67 0 
1 86 154 0 
1 26 -155 0 
1 161 -127 0 
1 -36 -92 0 
1 141 -131 0 
1 -51 -39 0 
1 -91 -77 0 
1 -38 -33 0 
1 2 80 0 
1 -144 -15 0 
1 -120 -30 0 
1 145 -163 0 
1 35 -96 0 
1 -60 -144 0 
1 -152 124 0 
1 70 141 0 
1 43 147 0 
1 165 -44 0 
1 21 68 0 
1 32 -28 0 
1 83 -120 0 
1 75 1 0 
1 -157 41 0 
1 105 -118 0 
1 -162 153 0 
1 -62 41 0 
1 76 38 0 
1 -56 -60 0 
1 119 3 0 
1 121 -127 0 
1 -57 45 0 
1 -4 130 0 
1 124 -140 0 
1 52 19 0 
1 47 40 0 
1 124 39 0 
1 53 88 0 
1 91 -129 0 
1 54 38 0 
1 115 134 0 
1 -2 45 0 
1 97 157 0 
1 -121 129 0 
1 -20 137 0 
1 141 -20 0 
1 -72 -142 0 
1 126 -131 0 
1 -125 -35 0 
1 -90 -149 0 
1 -108 -52 0 
1 75 98 0 
1 72 112 0 
1 144 166 0 
1 -131 79 0 
1 -36 150 0 
1 -17 -107 0 
1 -132 21 0 
1 -66 -40 0 
1 -51 128 0 
1 -155 -32 0 
1 162 120 0 
1 72 -64 0 
1 -122 27 0 
1 107 -36 0 
1 128 63 0 
1 14 -152 0 
1 139 -20 0 
1 -97 -167 0 
1 21 98 0 
1 69 -8 0 
1 139 36 0 
1 149 26 0 
1 56 -7 0 
1 159 -138 0 
1 89 97 0 
1 -33 5 0 
1 -20 38 0 
1 137 113 0 
1 -131 99 0 
1 -114 27 0 
1 38 9 0 
1 145 31 0 
1 -59 -100 0 
1 -61 143 0 
1 -97 83 0 
1 62 -18 0 
1 -127 -90 0 
1 -48 103 0 
1 120 -151 0 
1 -126 -74 0 
1 -79 60 0 
1 58 -85 0 
1 143 -123 0 
1 88 39 0 
1 -9 -124 0 
1 121 -49 0 
1 110 -33 0 
1 133 113 0 
1 23 -133 0 
1 -112 -14 0 
1 -106 -84 0 
1 -108 77 0 
1 112 113 0 
1 -80 89 0 
1 -162 150 0 
1 107 -146 0 
1 -66 -121 0 
1 -95 -122 0 
1 -116 -33 0 
1 115 5 0 
1 -116 70 0 
1 -113 -29 0 
1 145 162 0 
1 -79 71 0 
1 -68 167 0 
1 25 -158 0 
1 -156 151 0 
1 -38 42 0 
1 -86 -48 0 
1 66 -115 0 
1 20 -122 0 
1 -14 -117 0 
1 -44 -35 0 
1 -149 -76 0 
1 166 -85 0 
1 -100 -107 0 
1 -12 14 0 
1 116 55 0 
1 73 -25 0 
1 34 -106 0 
1 -85 -145 0 
1 18 -61 0 
1 158 20 0 
1 -43 -53 0 
1 -109 123 0 
1 17 100 0 
1 -48 151 0 
1 -136 58 0 
1 -165 -140 0 
1 -67 -134 0 
1 -6 140 0 
1 158 -78 0 
1 -81 167 0 
1 78 73 0 
1 -122 106 0 
1 86 -135 0 
1 121 31 0 
1 71 4 0 
1 -81 -45 0 
1 -113 3 0 
1 -28 1 0 
1 50 83 0 
1 141 -16 0 
1 -12 143 0 
1 86 50 0 
1 157 -78 0 
1 62 40 0 
1 -162 -61 0 
1 45 -54 0 
1 -43 125 0 
1 139 80 0 
1 -137 160 0 
1 -4 -56 0 
1 -158 -140 0 
1 25 -89 0 
1 -66 -91 0 
1 159 -132 0 
1 -71 80 0 
1 -106 -130 0 
1 -15 -116 0 
1 -137 -79 0 
1 -23 36 0 
1 -102 10 0 
1 95 53 0 
